Gurobi 9.1.2 (linux64) logging started Fri Mar  4 09:20:51 2022

Gurobi Optimizer version 9.1.2 build v9.1.2rc0 (linux64)
Thread count: 12 physical cores, 24 logical processors, using up to 1 threads
Optimize a model with 7500 rows, 7500 columns and 75835 nonzeros
Model fingerprint: 0x24f2deff
Model has 72561 quadratic objective terms
Variable types: 7440 continuous, 60 integer (60 binary)
Coefficient statistics:
  Matrix range     [8e-04, 1e+00]
  Objective range  [2e-22, 6e-03]
  QObjective range [5e-06, 1e-04]
  Bounds range     [1e+00, 1e+00]
  RHS range        [2e+00, 2e+00]
Found heuristic solution: objective 23.4071816
Presolve removed 2521 rows and 2521 columns
Presolve time: 0.13s
Presolved: 4979 rows, 4979 columns, 64057 nonzeros
Presolved model has 46663 quadratic objective terms
Variable types: 4919 continuous, 60 integer (60 binary)
Warning: Markowitz tolerance tightened to 0.125
Warning: Markowitz tolerance tightened to 0.5

Root relaxation: objective 7.271062e+00, 5614 iterations, 3.17 seconds

    Nodes    |    Current Node    |     Objective Bounds      |     Work
 Expl Unexpl |  Obj  Depth IntInf | Incumbent    BestBd   Gap | It/Node Time

     0     0    7.27106    0   60   23.40718    7.27106  68.9%     -    3s
     0     0    7.29314    0   60   23.40718    7.29314  68.8%     -    4s
H    0     0                      12.0725157    7.29314  39.6%     -    4s
     0     0    7.33677    0   60   12.07252    7.33677  39.2%     -    5s
     0     0    7.38684    0   60   12.07252    7.38684  38.8%     -    5s
     0     0    7.42456    0   60   12.07252    7.42456  38.5%     -    6s
     0     0    7.43098    0   60   12.07252    7.43098  38.4%     -    6s
     0     0    7.47820    0   60   12.07252    7.47820  38.1%     -    7s
     0     0    7.49788    0   60   12.07252    7.49788  37.9%     -    8s
     0     0    7.50333    0   60   12.07252    7.50333  37.8%     -    9s
     0     0    7.53968    0   60   12.07252    7.53968  37.5%     -    9s
     0     0    7.55104    0   60   12.07252    7.55104  37.5%     -   10s
     0     0    7.57470    0   60   12.07252    7.57470  37.3%     -   10s
     0     0    7.60425    0   60   12.07252    7.60425  37.0%     -   11s
     0     0    7.65702    0   60   12.07252    7.65702  36.6%     -   12s
     0     0    7.73295    0   60   12.07252    7.73295  35.9%     -   13s
     0     0    7.74879    0   60   12.07252    7.74879  35.8%     -   14s
     0     0    7.75719    0   60   12.07252    7.75719  35.7%     -   15s
     0     0    7.81949    0   60   12.07252    7.81949  35.2%     -   16s
     0     0    7.84500    0   60   12.07252    7.84500  35.0%     -   17s
     0     0    7.88878    0   60   12.07252    7.88878  34.7%     -   18s
     0     0    7.90708    0   60   12.07252    7.90708  34.5%     -   19s
     0     0    7.91214    0   60   12.07252    7.91214  34.5%     -   20s
     0     0    7.92578    0   60   12.07252    7.92578  34.3%     -   20s
     0     0    7.94229    0   60   12.07252    7.94229  34.2%     -   21s
     0     0    7.96524    0   60   12.07252    7.96524  34.0%     -   22s
     0     0    7.96720    0   60   12.07252    7.96720  34.0%     -   23s
     0     0    7.98806    0   60   12.07252    7.98806  33.8%     -   24s
     0     0    7.99398    0   60   12.07252    7.99398  33.8%     -   24s
     0     0    8.01186    0   60   12.07252    8.01186  33.6%     -   26s
     0     0    8.01365    0   60   12.07252    8.01365  33.6%     -   26s
     0     0    8.03257    0   60   12.07252    8.03257  33.5%     -   27s
     0     0    8.03465    0   60   12.07252    8.03465  33.4%     -   28s
     0     0    8.07457    0   60   12.07252    8.07457  33.1%     -   29s
     0     0    8.08664    0   60   12.07252    8.08664  33.0%     -   30s
     0     0    8.08828    0   60   12.07252    8.08828  33.0%     -   31s
     0     0    8.11422    0   60   12.07252    8.11422  32.8%     -   32s
     0     0    8.13988    0   60   12.07252    8.13988  32.6%     -   33s
     0     0    8.17876    0   60   12.07252    8.17876  32.3%     -   35s
     0     0    8.19696    0   60   12.07252    8.19696  32.1%     -   36s
     0     0    8.22380    0   60   12.07252    8.22380  31.9%     -   37s
     0     0    8.22506    0   60   12.07252    8.22506  31.9%     -   37s
     0     0    8.24608    0   60   12.07252    8.24608  31.7%     -   38s
     0     0    8.24737    0   60   12.07252    8.24737  31.7%     -   39s
     0     0    8.26391    0   60   12.07252    8.26391  31.5%     -   40s
     0     0    8.27328    0   60   12.07252    8.27328  31.5%     -   41s
     0     0    8.27556    0   60   12.07252    8.27556  31.5%     -   43s
     0     0    8.28155    0   60   12.07252    8.28155  31.4%     -   44s
     0     0    8.29557    0   60   12.07252    8.29557  31.3%     -   44s
     0     0    8.30259    0   60   12.07252    8.30259  31.2%     -   46s
     0     0    8.31387    0   60   12.07252    8.31387  31.1%     -   47s
     0     0    8.34756    0   60   12.07252    8.34756  30.9%     -   48s
     0     0    8.36474    0   60   12.07252    8.36474  30.7%     -   49s
     0     0    8.37115    0   60   12.07252    8.37115  30.7%     -   49s
     0     0    8.37120    0   60   12.07252    8.37120  30.7%     -   51s
     0     0    8.39295    0   60   12.07252    8.39295  30.5%     -   51s
     0     0    8.39302    0   60   12.07252    8.39302  30.5%     -   52s
     0     0    8.41525    0   60   12.07252    8.41525  30.3%     -   54s
     0     0    8.41541    0   60   12.07252    8.41541  30.3%     -   55s
     0     0    8.43760    0   60   12.07252    8.43760  30.1%     -   56s
     0     0    8.43761    0   60   12.07252    8.43761  30.1%     -   57s
     0     0    8.46225    0   60   12.07252    8.46225  29.9%     -   58s
     0     0    8.46412    0   60   12.07252    8.46412  29.9%     -   59s
     0     0    8.46413    0   60   12.07252    8.46413  29.9%     -   60s
     0     0    8.49241    0   60   12.07252    8.49241  29.7%     -   61s
     0     0    8.49490    0   60   12.07252    8.49490  29.6%     -   62s
     0     0    8.50690    0   60   12.07252    8.50690  29.5%     -   63s
     0     0    8.51100    0   60   12.07252    8.51100  29.5%     -   64s
     0     0    8.51110    0   60   12.07252    8.51110  29.5%     -   66s
     0     0    8.52077    0   60   12.07252    8.52077  29.4%     -   67s
     0     0    8.52383    0   60   12.07252    8.52383  29.4%     -   68s
     0     0    8.54315    0   60   12.07252    8.54315  29.2%     -   69s
     0     0    8.54325    0   60   12.07252    8.54325  29.2%     -   70s
     0     0    8.55481    0   60   12.07252    8.55481  29.1%     -   71s
     0     0    8.55485    0   60   12.07252    8.55485  29.1%     -   72s
     0     0    8.56344    0   60   12.07252    8.56344  29.1%     -   73s
     0     0    8.57487    0   60   12.07252    8.57487  29.0%     -   74s
     0     0    8.57885    0   60   12.07252    8.57885  28.9%     -   75s
     0     0    8.60295    0   60   12.07252    8.60295  28.7%     -   76s
     0     0    8.60611    0   60   12.07252    8.60611  28.7%     -   78s
     0     0    8.62390    0   60   12.07252    8.62390  28.6%     -   79s
     0     0    8.63315    0   60   12.07252    8.63315  28.5%     -   80s
     0     0    8.64843    0   60   12.07252    8.64843  28.4%     -   81s
     0     0    8.66289    0   60   12.07252    8.66289  28.2%     -   83s
     0     0    8.66617    0   60   12.07252    8.66617  28.2%     -   84s
     0     0    8.69123    0   60   12.07252    8.69123  28.0%     -   85s
     0     0    8.71301    0   60   12.07252    8.71301  27.8%     -   86s
     0     0    8.72744    0   60   12.07252    8.72744  27.7%     -   88s
     0     0    8.73404    0   60   12.07252    8.73404  27.7%     -   90s
     0     0    8.73515    0   60   12.07252    8.73515  27.6%     -   91s
     0     0    8.74908    0   60   12.07252    8.74908  27.5%     -   92s
     0     0    8.75336    0   60   12.07252    8.75336  27.5%     -   93s
     0     0    8.76506    0   60   12.07252    8.76506  27.4%     -   95s
     0     0    8.76632    0   60   12.07252    8.76632  27.4%     -   96s
     0     0    8.77542    0   60   12.07252    8.77542  27.3%     -   97s
     0     0    8.77566    0   60   12.07252    8.77566  27.3%     -   99s
     0     0    8.78532    0   60   12.07252    8.78532  27.2%     -  100s
     0     0    8.79845    0   60   12.07252    8.79845  27.1%     -  102s
     0     0    8.79864    0   60   12.07252    8.79864  27.1%     -  103s
     0     0    8.81213    0   60   12.07252    8.81213  27.0%     -  104s
     0     0    8.82493    0   60   12.07252    8.82493  26.9%     -  106s
     0     0    8.82496    0   60   12.07252    8.82496  26.9%     -  107s
     0     0    8.82781    0   60   12.07252    8.82781  26.9%     -  108s
     0     0    8.82807    0   60   12.07252    8.82807  26.9%     -  110s
     0     0    8.83230    0   60   12.07252    8.83230  26.8%     -  111s
     0     0    8.83248    0   60   12.07252    8.83248  26.8%     -  112s
     0     0    8.83702    0   60   12.07252    8.83702  26.8%     -  113s
     0     0    8.83809    0   60   12.07252    8.83809  26.8%     -  114s
     0     0    8.83815    0   60   12.07252    8.83815  26.8%     -  115s
     0     0    8.84869    0   60   12.07252    8.84869  26.7%     -  116s
     0     0    8.84888    0   60   12.07252    8.84888  26.7%     -  118s
     0     0    8.85810    0   60   12.07252    8.85810  26.6%     -  119s
     0     0    8.86273    0   60   12.07252    8.86273  26.6%     -  120s
     0     0    8.86749    0   60   12.07252    8.86749  26.5%     -  122s
     0     0    8.86761    0   60   12.07252    8.86761  26.5%     -  123s
     0     0    8.87118    0   60   12.07252    8.87118  26.5%     -  125s
     0     0    8.87128    0   60   12.07252    8.87128  26.5%     -  125s
     0     0    8.87317    0   60   12.07252    8.87317  26.5%     -  126s
     0     0    9.28201    0   56   12.07252    9.28201  23.1%     -  142s
     0     2    9.46356    0   56   12.07252    9.46356  21.6%     -  150s

Cutting planes:
  Network: 30

Explored 12 nodes (7957 simplex iterations) in 152.44 seconds
Thread count was 1 (of 24 available processors)

Solution count 2: 12.0725 23.4072 

Optimal solution found (tolerance 1.00e-04)
Best objective 1.207251567742e+01, best bound 1.207251567742e+01, gap 0.0000%
